sat

(objectives
 ((bvadd PriceProv11 (bvadd PriceProv10 (bvadd PriceProv9 (bvadd PriceProv8 (bvadd PriceProv7 (bvadd PriceProv6 (bvadd PriceProv5 (bvadd PriceProv4 (bvadd PriceProv3 (bvadd PriceProv1 PriceProv2)))))))))) (_ bv54912 32))
)
;; statistics
(
 :cnf-variables 1435
 :cnf-literals 3149
 :cnf-clauses 1544
 :sat-checks 9
 :sat-restarts 38
 :sat-decisions 133822
 :sat-random-decisions 75
 :sat-propagations 1111050764
 :sat-theory-propagations 2
 :sat-watched-clauses-visited 1202655389
 :sat-binary-watched-clauses-visited 756677671
 :sat-conflicts 39817
 :sat-theory-conflicts 0
 :theory-necessary-interface-equalities 0
 :theory-extra-interface-equalities 0
 :euf-total-calls 144171
 :euf-complete-calls 6
 :euf-conflicts 0
 :euf-implications 2
 :euf-explanations 2
 :euf-egraph-nodes-created 111978
 :euf-egraph-nodes-deleted 106608
 :euf-num-asserted-equalities 4028442
 :euf-num-asserted-inequalities 1405164
 :euf-num-merges 9184856
 :euf-num-merges-undone 9184856
 :euf-num-atoms-retold 25696
 :la-total-calls 144171
 :la-complete-calls 6
 :la-conflicts 0
 :la-implications 0
 :la-explanations 0
 :la-num-equalities-split 0
 :la-num-tableau-rows 0
 :la-num-tableau-variables 0
 :bv-total-calls 144171
 :bv-complete-calls 6
 :bv-conflicts 0
 :bv-implications 0
 :bv-explanations 0
 :fp-total-calls 144171
 :fp-complete-calls 6
 :fp-conflicts 0
 :fp-implications 0
 :fp-explanations 0
 :arr-total-calls 144171
 :arr-complete-calls 6
 :arr-conflicts 0
 :arr-implications 0
 :arr-explanations 0
 :arr-write-lemmas-added 0
 :arr-row-lemmas-added 0
 :arr-ext-lemmas-added 0
 :arr-const-lemmas-added 0
 :na-total-calls 144171
 :na-complete-calls 6
 :na-conflicts 0
 :na-implications 0
 :na-explanations 0
 :na-num_nonlinear_multiplications 0
 :na-num_axiom_checks 0
 :na-num_zero_lemmas 0
 :na-num_sign_lemmas 0
 :na-num_neutral_lemmas 0
 :na-num_proportionality_lemmas 0
 :na-num_bound_lemmas 0
 :na-num_tangent_lemmas 0
 :na-num_monotonicity_lemmas 0
 :na-num_sat_checks 0
 :na-axiom_check_time 0.000
 :na-sat_check_time 0.000
 :time-seconds 159.577
 :memory-mb 175.363
)
